\ This file was automatically generated by Zimpl
\ var x integer >= 0 priority 1 startval 1;
\ var y integer >= 0 priority 2 startval 2;
\ subto asdf: x + y <= -ln(0.22E-44);
\ sos testsos: type1: 1*x + 2*y;
\ maximize goal: -1E308*x + ln(4.9E-323)*y;
\Problem name: simple.zpl
Maximize
 goal:  -1e+37 x -inf y
Subject to
 asdf_1:
  + y + x <= 102.827871824368
Bounds
 0 <= x <= +inf
 0 <= y <= +inf
General
 x
 y
SOS
 testsos_1:S1::  y:2 x:1
End
